inada/spaceship/8.tsp
NAME spaceship {filename}
TYPE: TSP
DIMENSION: 51
EDGE_WEIGHT_TYPE: MAX_2D
NODE_COORD_SECTION
0 0 0
1 -2 -1
2 -2 -2
3 1 -4
4 1 -5
5 2 -8
6 4 -11
7 6 -17
8 6 -20
9 11 -25
10 12 -29
11 18 -34
12 21 -38
13 29 -44
14 35 -48
15 41 -53
16 48 -57
17 55 -60
18 59 -63
19 63 -65
20 70 -68
21 74 -68
22 79 -69
23 85 -70
24 87 -73
25 90 -74
26 94 -78
27 96 -80
28 97 -84
29 100 -88
30 103 -94
31 105 -96
32 107 -102
33 109 -105
34 112 -111
35 114 -113
36 116 -117
37 118 -121
38 122 -125
39 126 -128
40 129 -133
41 133 -136
42 137 -140
43 141 -144
44 143 -147
45 149 -152
46 153 -154
47 156 -156
48 161 -158
49 165 -160
50 173 -161
EOF
