inada/spaceship/8.sol
50
0 20 21 22 23 24 25 26 27 28 
29 30 31 32 33 49 48 47 46 45 
44 43 42 41 40 39 38 37 36 35 
34 19 18 17 16 15 14 13 12 11 
10 9 8 7 6 5 4 3 2 1 
